c Standarized MaxSat Instance
c{
c "sha1sum": "f27a8d2cae75966ae2a851d33dd4fdd7af668b33",
c "nvars": 101,
c "ncls": 1080,
c "nhards": 1049,
c "nhard_len_stats":
c    { "min": 2, "max": 11, "ave": 2.04,
c      "stddev": 0.42 },
c "nsofts": 31,
c "nsoft_len_stats":
c    { "min": 1, "max": 1, "ave": 1.00,
c      "stddev": 0.00 },
c "nsoft_wts": 4,
c "soft_wt_stats":
c    { "min": 25, "max": 150, "ave": 91.94,
c      "stddev": 51.35 }
c}
c------------------------------------------------------------
c ./bwt3c.wcsp
c PSEUDOBOOLEAN 2851
p wcnf 101 1080 2851
2851 3 4 5 0
2851 -3 -4 0
2851 -3 -5 0
2851 -4 -3 0
2851 -4 -5 0
2851 -5 -3 0
2851 -5 -4 0
2851 6 7 8 0
2851 -6 -7 0
2851 -6 -8 0
2851 -7 -6 0
2851 -7 -8 0
2851 -8 -6 0
2851 -8 -7 0
2851 9 10 11 12 13 0
2851 -9 -10 0
2851 -9 -11 0
2851 -9 -12 0
2851 -9 -13 0
2851 -10 -9 0
2851 -10 -11 0
2851 -10 -12 0
2851 -10 -13 0
2851 -11 -9 0
2851 -11 -10 0
2851 -11 -12 0
2851 -11 -13 0
2851 -12 -9 0
2851 -12 -10 0
2851 -12 -11 0
2851 -12 -13 0
2851 -13 -9 0
2851 -13 -10 0
2851 -13 -11 0
2851 -13 -12 0
2851 14 15 16 17 18 0
2851 -14 -15 0
2851 -14 -16 0
2851 -14 -17 0
2851 -14 -18 0
2851 -15 -14 0
2851 -15 -16 0
2851 -15 -17 0
2851 -15 -18 0
2851 -16 -14 0
2851 -16 -15 0
2851 -16 -17 0
2851 -16 -18 0
2851 -17 -14 0
2851 -17 -15 0
2851 -17 -16 0
2851 -17 -18 0
2851 -18 -14 0
2851 -18 -15 0
2851 -18 -16 0
2851 -18 -17 0
2851 19 20 21 22 23 24 25 0
2851 -19 -20 0
2851 -19 -21 0
2851 -19 -22 0
2851 -19 -23 0
2851 -19 -24 0
2851 -19 -25 0
2851 -20 -19 0
2851 -20 -21 0
2851 -20 -22 0
2851 -20 -23 0
2851 -20 -24 0
2851 -20 -25 0
2851 -21 -19 0
2851 -21 -20 0
2851 -21 -22 0
2851 -21 -23 0
2851 -21 -24 0
2851 -21 -25 0
2851 -22 -19 0
2851 -22 -20 0
2851 -22 -21 0
2851 -22 -23 0
2851 -22 -24 0
2851 -22 -25 0
2851 -23 -19 0
2851 -23 -20 0
2851 -23 -21 0
2851 -23 -22 0
2851 -23 -24 0
2851 -23 -25 0
2851 -24 -19 0
2851 -24 -20 0
2851 -24 -21 0
2851 -24 -22 0
2851 -24 -23 0
2851 -24 -25 0
2851 -25 -19 0
2851 -25 -20 0
2851 -25 -21 0
2851 -25 -22 0
2851 -25 -23 0
2851 -25 -24 0
2851 26 27 28 29 30 31 32 0
2851 -26 -27 0
2851 -26 -28 0
2851 -26 -29 0
2851 -26 -30 0
2851 -26 -31 0
2851 -26 -32 0
2851 -27 -26 0
2851 -27 -28 0
2851 -27 -29 0
2851 -27 -30 0
2851 -27 -31 0
2851 -27 -32 0
2851 -28 -26 0
2851 -28 -27 0
2851 -28 -29 0
2851 -28 -30 0
2851 -28 -31 0
2851 -28 -32 0
2851 -29 -26 0
2851 -29 -27 0
2851 -29 -28 0
2851 -29 -30 0
2851 -29 -31 0
2851 -29 -32 0
2851 -30 -26 0
2851 -30 -27 0
2851 -30 -28 0
2851 -30 -29 0
2851 -30 -31 0
2851 -30 -32 0
2851 -31 -26 0
2851 -31 -27 0
2851 -31 -28 0
2851 -31 -29 0
2851 -31 -30 0
2851 -31 -32 0
2851 -32 -26 0
2851 -32 -27 0
2851 -32 -28 0
2851 -32 -29 0
2851 -32 -30 0
2851 -32 -31 0
2851 42 43 44 0
2851 -42 -43 0
2851 -42 -44 0
2851 -43 -42 0
2851 -43 -44 0
2851 -44 -42 0
2851 -44 -43 0
2851 45 46 47 0
2851 -45 -46 0
2851 -45 -47 0
2851 -46 -45 0
2851 -46 -47 0
2851 -47 -45 0
2851 -47 -46 0
2851 48 49 50 0
2851 -48 -49 0
2851 -48 -50 0
2851 -49 -48 0
2851 -49 -50 0
2851 -50 -48 0
2851 -50 -49 0
2851 51 52 53 54 55 56 57 58 59 60 61 0
2851 -51 -52 0
2851 -51 -53 0
2851 -51 -54 0
2851 -51 -55 0
2851 -51 -56 0
2851 -51 -57 0
2851 -51 -58 0
2851 -51 -59 0
2851 -51 -60 0
2851 -51 -61 0
2851 -52 -51 0
2851 -52 -53 0
2851 -52 -54 0
2851 -52 -55 0
2851 -52 -56 0
2851 -52 -57 0
2851 -52 -58 0
2851 -52 -59 0
2851 -52 -60 0
2851 -52 -61 0
2851 -53 -51 0
2851 -53 -52 0
2851 -53 -54 0
2851 -53 -55 0
2851 -53 -56 0
2851 -53 -57 0
2851 -53 -58 0
2851 -53 -59 0
2851 -53 -60 0
2851 -53 -61 0
2851 -54 -51 0
2851 -54 -52 0
2851 -54 -53 0
2851 -54 -55 0
2851 -54 -56 0
2851 -54 -57 0
2851 -54 -58 0
2851 -54 -59 0
2851 -54 -60 0
2851 -54 -61 0
2851 -55 -51 0
2851 -55 -52 0
2851 -55 -53 0
2851 -55 -54 0
2851 -55 -56 0
2851 -55 -57 0
2851 -55 -58 0
2851 -55 -59 0
2851 -55 -60 0
2851 -55 -61 0
2851 -56 -51 0
2851 -56 -52 0
2851 -56 -53 0
2851 -56 -54 0
2851 -56 -55 0
2851 -56 -57 0
2851 -56 -58 0
2851 -56 -59 0
2851 -56 -60 0
2851 -56 -61 0
2851 -57 -51 0
2851 -57 -52 0
2851 -57 -53 0
2851 -57 -54 0
2851 -57 -55 0
2851 -57 -56 0
2851 -57 -58 0
2851 -57 -59 0
2851 -57 -60 0
2851 -57 -61 0
2851 -58 -51 0
2851 -58 -52 0
2851 -58 -53 0
2851 -58 -54 0
2851 -58 -55 0
2851 -58 -56 0
2851 -58 -57 0
2851 -58 -59 0
2851 -58 -60 0
2851 -58 -61 0
2851 -59 -51 0
2851 -59 -52 0
2851 -59 -53 0
2851 -59 -54 0
2851 -59 -55 0
2851 -59 -56 0
2851 -59 -57 0
2851 -59 -58 0
2851 -59 -60 0
2851 -59 -61 0
2851 -60 -51 0
2851 -60 -52 0
2851 -60 -53 0
2851 -60 -54 0
2851 -60 -55 0
2851 -60 -56 0
2851 -60 -57 0
2851 -60 -58 0
2851 -60 -59 0
2851 -60 -61 0
2851 -61 -51 0
2851 -61 -52 0
2851 -61 -53 0
2851 -61 -54 0
2851 -61 -55 0
2851 -61 -56 0
2851 -61 -57 0
2851 -61 -58 0
2851 -61 -59 0
2851 -61 -60 0
2851 62 63 64 65 66 0
2851 -62 -63 0
2851 -62 -64 0
2851 -62 -65 0
2851 -62 -66 0
2851 -63 -62 0
2851 -63 -64 0
2851 -63 -65 0
2851 -63 -66 0
2851 -64 -62 0
2851 -64 -63 0
2851 -64 -65 0
2851 -64 -66 0
2851 -65 -62 0
2851 -65 -63 0
2851 -65 -64 0
2851 -65 -66 0
2851 -66 -62 0
2851 -66 -63 0
2851 -66 -64 0
2851 -66 -65 0
2851 67 68 69 70 71 0
2851 -67 -68 0
2851 -67 -69 0
2851 -67 -70 0
2851 -67 -71 0
2851 -68 -67 0
2851 -68 -69 0
2851 -68 -70 0
2851 -68 -71 0
2851 -69 -67 0
2851 -69 -68 0
2851 -69 -70 0
2851 -69 -71 0
2851 -70 -67 0
2851 -70 -68 0
2851 -70 -69 0
2851 -70 -71 0
2851 -71 -67 0
2851 -71 -68 0
2851 -71 -69 0
2851 -71 -70 0
2851 72 73 74 75 76 0
2851 -72 -73 0
2851 -72 -74 0
2851 -72 -75 0
2851 -72 -76 0
2851 -73 -72 0
2851 -73 -74 0
2851 -73 -75 0
2851 -73 -76 0
2851 -74 -72 0
2851 -74 -73 0
2851 -74 -75 0
2851 -74 -76 0
2851 -75 -72 0
2851 -75 -73 0
2851 -75 -74 0
2851 -75 -76 0
2851 -76 -72 0
2851 -76 -73 0
2851 -76 -74 0
2851 -76 -75 0
2851 77 78 79 0
2851 -77 -78 0
2851 -77 -79 0
2851 -78 -77 0
2851 -78 -79 0
2851 -79 -77 0
2851 -79 -78 0
2851 80 81 82 0
2851 -80 -81 0
2851 -80 -82 0
2851 -81 -80 0
2851 -81 -82 0
2851 -82 -80 0
2851 -82 -81 0
2851 1 2 0
2851 -1 2 0
2851 -1 -2 0
2851 1 -3 0
2851 -1 -14 0
2851 -1 -19 0
2851 2 -6 0
2851 -2 -9 0
2851 -2 -26 0
2851 -4 -7 0
2851 -4 -8 0
2851 -5 -7 0
2851 -5 -8 0
2851 -4 -10 0
2851 -4 -15 0
2851 -4 -16 0
2851 -4 -17 0
2851 -4 -18 0
2851 -5 -15 0
2851 -5 -16 0
2851 -5 -17 0
2851 -5 -18 0
2851 -4 -20 0
2851 -4 -21 0
2851 -4 -22 0
2851 -4 -23 0
2851 -4 -24 0
2851 -4 -25 0
2851 -5 -20 0
2851 -5 -21 0
2851 -5 -22 0
2851 -5 -23 0
2851 -5 -24 0
2851 -5 -25 0
2851 -4 -28 0
2851 -4 -30 0
2851 -4 -31 0
2851 -4 -32 0
2851 -5 -30 0
2851 -5 -32 0
2851 -4 -33 0
2851 -5 -33 0
2851 -4 -34 0
2851 -5 -34 0
2851 -4 -35 0
2851 -5 -35 0
2851 -5 36 0
2851 -4 39 0
2851 -7 -10 0
2851 -7 -11 0
2851 -7 -12 0
2851 -7 -13 0
2851 -8 -10 0
2851 -8 -11 0
2851 -8 -12 0
2851 -8 -13 0
2851 -7 -15 0
2851 -7 -16 0
2851 -7 -17 0
2851 -7 -18 0
2851 -8 -15 0
2851 -8 -16 0
2851 -8 -17 0
2851 -8 -18 0
2851 -7 -22 0
2851 -7 -23 0
2851 -7 -24 0
2851 -7 -25 0
2851 -8 -23 0
2851 -8 -24 0
2851 -8 -25 0
2851 -7 -27 0
2851 -7 -28 0
2851 -7 -29 0
2851 -7 -30 0
2851 -7 -31 0
2851 -7 -32 0
2851 -8 -27 0
2851 -8 -28 0
2851 -8 -29 0
2851 -8 -30 0
2851 -8 -31 0
2851 -8 -32 0
2851 -7 -33 0
2851 -8 -33 0
2851 -7 -34 0
2851 -8 -34 0
2851 -8 -35 0
2851 -8 -36 0
2851 -7 40 0
2851 -8 -42 0
2851 -8 -67 0
2851 -10 -15 0
2851 -10 -16 0
2851 -10 -17 0
2851 -10 -18 0
2851 -11 -15 0
2851 -11 -16 0
2851 -11 -17 0
2851 -11 -18 0
2851 -12 -15 0
2851 -12 -16 0
2851 -12 -17 0
2851 -12 -18 0
2851 -13 -15 0
2851 -13 -16 0
2851 -13 -17 0
2851 -13 -18 0
2851 -10 -23 0
2851 -10 -24 0
2851 -10 -25 0
2851 -12 -21 0
2851 -13 -23 0
2851 -13 -24 0
2851 -13 -25 0
2851 -10 -30 0
2851 -10 -31 0
2851 -10 -32 0
2851 -11 -29 0
2851 -13 -30 0
2851 -13 -31 0
2851 -13 -32 0
2851 -10 -33 0
2851 -11 33 0
2851 -13 -33 0
2851 -10 -34 0
2851 -12 34 0
2851 -13 -34 0
2851 -10 -35 0
2851 -13 -35 0
2851 -10 -36 0
2851 -13 -36 0
2851 -10 -42 0
2851 -13 -51 0
2851 -13 -72 0
2851 -13 -80 0
2851 -15 -23 0
2851 -15 -24 0
2851 -15 -25 0
2851 -17 -23 0
2851 -17 -24 0
2851 -17 -25 0
2851 -18 -23 0
2851 -18 -24 0
2851 -18 -25 0
2851 -15 -27 0
2851 -15 -28 0
2851 -15 -29 0
2851 -15 -30 0
2851 -15 -31 0
2851 -15 -32 0
2851 -16 -27 0
2851 -16 -28 0
2851 -16 -29 0
2851 -16 -30 0
2851 -16 -31 0
2851 -16 -32 0
2851 -17 -27 0
2851 -17 -28 0
2851 -17 -29 0
2851 -17 -30 0
2851 -17 -31 0
2851 -17 -32 0
2851 -18 -27 0
2851 -18 -28 0
2851 -18 -29 0
2851 -18 -30 0
2851 -18 -31 0
2851 -18 -32 0
2851 -15 -33 0
2851 -16 -33 0
2851 -17 -33 0
2851 -18 -33 0
2851 -15 -34 0
2851 -16 -34 0
2851 -17 -34 0
2851 -18 -34 0
2851 -15 -35 0
2851 -16 35 0
2851 -17 -35 0
2851 -18 -35 0
2851 -15 -36 0
2851 -17 -36 0
2851 -18 38 0
2851 -15 -45 0
2851 -17 -51 0
2851 -18 -51 0
2851 -17 -67 0
2851 -18 -67 0
2851 -17 -77 0
2851 -20 -32 0
2851 -21 -29 0
2851 -23 -28 0
2851 -23 -30 0
2851 -23 -31 0
2851 -23 -32 0
2851 -24 -27 0
2851 -24 -28 0
2851 -24 -30 0
2851 -24 -31 0
2851 -24 -32 0
2851 -25 -28 0
2851 -25 -30 0
2851 -25 -31 0
2851 -25 -32 0
2851 -20 -33 0
2851 -21 33 0
2851 -22 -33 0
2851 -23 -33 0
2851 -24 -33 0
2851 -25 -33 0
2851 -22 -34 0
2851 -23 -34 0
2851 -24 -34 0
2851 -25 -34 0
2851 -20 -35 0
2851 -22 35 0
2851 -23 -35 0
2851 -24 -35 0
2851 -25 -35 0
2851 -20 -36 0
2851 -23 -48 0
2851 -24 -48 0
2851 -25 -48 0
2851 -20 -62 0
2851 -24 -67 0
2851 -23 -72 0
2851 -28 -33 0
2851 -30 -33 0
2851 -31 -33 0
2851 -32 -33 0
2851 -27 -34 0
2851 -28 -34 0
2851 -29 34 0
2851 -30 -34 0
2851 -31 -34 0
2851 -32 -34 0
2851 -27 -35 0
2851 -28 -35 0
2851 -30 -35 0
2851 -31 -35 0
2851 -32 -35 0
2851 -27 -36 0
2851 -28 36 0
2851 -31 -36 0
2851 -32 37 0
2851 -30 -45 0
2851 -31 -45 0
2851 -32 -51 0
2851 -32 -62 0
2851 -27 -67 0
2851 -30 -72 0
2851 -33 41 0
2851 -33 -51 0
2851 -33 -72 0
2851 -34 40 0
2851 -34 -51 0
2851 -34 -72 0
2851 -35 39 0
2851 -35 -51 0
2851 -35 -67 0
2851 -36 -45 0
2851 -36 -62 0
2851 -37 -38 0
2851 -37 -39 0
2851 -37 -40 0
2851 -37 -41 0
2851 -37 -43 0
2851 -37 -44 0
2851 -37 -46 0
2851 -37 -47 0
2851 -37 -49 0
2851 -37 -50 0
2851 -37 -68 0
2851 -37 -69 0
2851 -37 -70 0
2851 -37 -71 0
2851 -37 -83 0
2851 -37 84 0
2851 -38 -39 0
2851 -38 -40 0
2851 -38 -41 0
2851 -38 -43 0
2851 -38 -44 0
2851 -38 -46 0
2851 -38 -47 0
2851 -38 -49 0
2851 -38 -50 0
2851 -38 -73 0
2851 -38 -74 0
2851 -38 -75 0
2851 -38 -76 0
2851 -38 -78 0
2851 -38 -79 0
2851 -38 -83 0
2851 -38 -84 0
2851 -38 -85 0
2851 -38 86 0
2851 -39 -40 0
2851 -39 -41 0
2851 -39 -43 0
2851 -39 -44 0
2851 -39 -46 0
2851 -39 -47 0
2851 -39 -49 0
2851 -39 -50 0
2851 -39 -63 0
2851 -39 -64 0
2851 -39 -65 0
2851 -39 -66 0
2851 -39 -78 0
2851 -39 -79 0
2851 -39 -83 0
2851 -39 -84 0
2851 -39 -85 0
2851 -39 -86 0
2851 -39 87 0
2851 -40 -41 0
2851 -40 -43 0
2851 -40 -44 0
2851 -40 -46 0
2851 -40 -47 0
2851 -40 -49 0
2851 -40 -50 0
2851 -40 -68 0
2851 -40 -69 0
2851 -40 -70 0
2851 -40 -71 0
2851 -40 -81 0
2851 -40 -82 0
2851 -40 -83 0
2851 -40 -84 0
2851 -40 -85 0
2851 -40 -86 0
2851 -40 -87 0
2851 -40 -88 0
2851 -40 89 0
2851 -41 -43 0
2851 -41 -44 0
2851 -41 -46 0
2851 -41 -47 0
2851 -41 -49 0
2851 -41 -50 0
2851 -41 -63 0
2851 -41 -64 0
2851 -41 -65 0
2851 -41 -66 0
2851 -41 -81 0
2851 -41 -82 0
2851 -41 -83 0
2851 -41 -84 0
2851 -41 -85 0
2851 -41 -86 0
2851 -41 -87 0
2851 -41 -88 0
2851 -41 -89 0
2851 -41 90 0
2851 -43 -46 0
2851 -43 -47 0
2851 -44 -46 0
2851 -44 -47 0
2851 -43 -49 0
2851 -43 -50 0
2851 -44 -49 0
2851 -44 -50 0
2851 -43 -52 0
2851 -43 -53 0
2851 -43 -54 0
2851 -43 -55 0
2851 -43 -56 0
2851 -43 -57 0
2851 -43 -58 0
2851 -43 -59 0
2851 -43 -60 0
2851 -43 -61 0
2851 -44 -52 0
2851 -44 -53 0
2851 -44 -54 0
2851 -44 -55 0
2851 -44 -56 0
2851 -44 -57 0
2851 -44 -58 0
2851 -44 -59 0
2851 -44 -60 0
2851 -44 -61 0
2851 -43 -73 0
2851 -43 -74 0
2851 -43 -75 0
2851 -43 -76 0
2851 -44 -73 0
2851 -44 -74 0
2851 -44 -75 0
2851 -44 -76 0
2851 -43 -81 0
2851 -43 -82 0
2851 -44 -81 0
2851 -44 -82 0
2851 -43 -83 0
2851 -44 -83 0
2851 -43 -84 0
2851 -44 -84 0
2851 -43 -85 0
2851 -44 -85 0
2851 -43 -86 0
2851 -44 -86 0
2851 -43 -87 0
2851 -44 -87 0
2851 -43 -88 0
2851 -44 -88 0
2851 -43 -89 0
2851 -44 -89 0
2851 -43 -90 0
2851 -44 -90 0
2851 -43 -91 0
2851 -44 -91 0
2851 -43 92 0
2851 -44 95 0
2851 -44 98 0
2851 -44 101 0
2851 -46 -49 0
2851 -46 -50 0
2851 -47 -49 0
2851 -47 -50 0
2851 -46 -52 0
2851 -46 -53 0
2851 -46 -54 0
2851 -46 -55 0
2851 -46 -56 0
2851 -46 -57 0
2851 -46 -58 0
2851 -46 -59 0
2851 -46 -60 0
2851 -46 -61 0
2851 -47 -52 0
2851 -47 -53 0
2851 -47 -54 0
2851 -47 -55 0
2851 -47 -56 0
2851 -47 -57 0
2851 -47 -58 0
2851 -47 -59 0
2851 -47 -60 0
2851 -47 -61 0
2851 -46 -68 0
2851 -46 -69 0
2851 -46 -70 0
2851 -46 -71 0
2851 -47 -68 0
2851 -47 -69 0
2851 -47 -70 0
2851 -47 -71 0
2851 -46 -74 0
2851 -46 -75 0
2851 -46 -76 0
2851 -46 -78 0
2851 -46 -79 0
2851 -47 -78 0
2851 -47 -79 0
2851 -46 -82 0
2851 -46 -83 0
2851 -47 -83 0
2851 -46 -84 0
2851 -47 -84 0
2851 -46 -85 0
2851 -47 -85 0
2851 -46 -86 0
2851 -47 -86 0
2851 -46 -87 0
2851 -47 -87 0
2851 -46 -88 0
2851 -47 -88 0
2851 -47 -89 0
2851 -47 -90 0
2851 -47 -91 0
2851 -46 93 0
2851 -47 95 0
2851 -47 97 0
2851 -47 100 0
2851 -49 -52 0
2851 -49 -53 0
2851 -49 -54 0
2851 -49 -55 0
2851 -49 -56 0
2851 -49 -57 0
2851 -49 -58 0
2851 -49 -59 0
2851 -49 -60 0
2851 -49 -61 0
2851 -50 -52 0
2851 -50 -53 0
2851 -50 -54 0
2851 -50 -55 0
2851 -50 -56 0
2851 -50 -57 0
2851 -50 -58 0
2851 -50 -59 0
2851 -50 -60 0
2851 -50 -61 0
2851 -49 -63 0
2851 -49 -64 0
2851 -49 -65 0
2851 -49 -66 0
2851 -50 -63 0
2851 -50 -64 0
2851 -50 -65 0
2851 -50 -66 0
2851 -49 -69 0
2851 -49 -70 0
2851 -49 -71 0
2851 -49 -74 0
2851 -49 -75 0
2851 -49 -76 0
2851 -49 -79 0
2851 -49 -82 0
2851 -49 -83 0
2851 -50 -83 0
2851 -49 -84 0
2851 -50 -84 0
2851 -49 -85 0
2851 -50 -85 0
2851 -50 -86 0
2851 -50 -87 0
2851 -50 -88 0
2851 -50 -89 0
2851 -50 -90 0
2851 -50 -91 0
2851 -49 94 0
2851 -50 95 0
2851 -50 96 0
2851 -50 99 0
2851 -52 -83 0
2851 -53 83 0
2851 -54 -83 0
2851 -55 -83 0
2851 -56 -83 0
2851 -57 -83 0
2851 -58 -83 0
2851 -59 -83 0
2851 -60 -83 0
2851 -61 -83 0
2851 -52 -84 0
2851 -54 84 0
2851 -55 -84 0
2851 -56 -84 0
2851 -57 -84 0
2851 -58 -84 0
2851 -59 -84 0
2851 -60 -84 0
2851 -61 -84 0
2851 -52 -85 0
2851 -55 85 0
2851 -56 -85 0
2851 -57 -85 0
2851 -58 -85 0
2851 -59 -85 0
2851 -60 -85 0
2851 -61 -85 0
2851 -52 -86 0
2851 -56 86 0
2851 -57 -86 0
2851 -58 -86 0
2851 -59 -86 0
2851 -60 -86 0
2851 -61 -86 0
2851 -52 -87 0
2851 -57 87 0
2851 -58 -87 0
2851 -59 -87 0
2851 -60 -87 0
2851 -61 -87 0
2851 -52 -88 0
2851 -58 88 0
2851 -59 -88 0
2851 -60 -88 0
2851 -61 -88 0
2851 -52 -89 0
2851 -59 89 0
2851 -60 -89 0
2851 -61 -89 0
2851 -52 -90 0
2851 -60 90 0
2851 -61 -90 0
2851 -52 -91 0
2851 -61 91 0
2851 -52 95 0
2851 -63 -83 0
2851 -64 83 0
2851 -65 -83 0
2851 -66 -83 0
2851 -63 -84 0
2851 -65 84 0
2851 -66 -84 0
2851 -63 -85 0
2851 -66 85 0
2851 -63 -87 0
2851 -63 -90 0
2851 -63 96 0
2851 -69 -83 0
2851 -70 -83 0
2851 -71 -83 0
2851 -68 -84 0
2851 -69 -84 0
2851 -70 -84 0
2851 -71 -84 0
2851 -69 -85 0
2851 -70 -85 0
2851 -71 -85 0
2851 -68 -86 0
2851 -69 86 0
2851 -70 -86 0
2851 -71 -86 0
2851 -68 -87 0
2851 -70 87 0
2851 -71 -87 0
2851 -68 -88 0
2851 -71 88 0
2851 -68 -89 0
2851 -68 97 0
2851 -73 -83 0
2851 -74 -83 0
2851 -75 -83 0
2851 -76 -83 0
2851 -74 -84 0
2851 -75 -84 0
2851 -76 -84 0
2851 -74 -85 0
2851 -75 -85 0
2851 -76 -85 0
2851 -73 -86 0
2851 -74 -86 0
2851 -75 -86 0
2851 -76 -86 0
2851 -74 -87 0
2851 -75 -87 0
2851 -76 -87 0
2851 -74 -88 0
2851 -75 -88 0
2851 -76 -88 0
2851 -73 -89 0
2851 -74 89 0
2851 -75 -89 0
2851 -76 -89 0
2851 -73 -90 0
2851 -75 90 0
2851 -76 -90 0
2851 -73 -91 0
2851 -76 91 0
2851 -73 98 0
2851 -79 -83 0
2851 -79 -84 0
2851 -79 -85 0
2851 -78 -86 0
2851 -79 -86 0
2851 -78 -87 0
2851 -79 -87 0
2851 -78 -88 0
2851 -79 88 0
2851 -78 100 0
2851 -82 -83 0
2851 -82 -84 0
2851 -82 -85 0
2851 -82 -86 0
2851 -82 -87 0
2851 -82 -88 0
2851 -81 -89 0
2851 -82 -89 0
2851 -81 -90 0
2851 -82 -90 0
2851 -81 -91 0
2851 -82 91 0
2851 -81 101 0
2851 -83 94 0
2851 -83 98 0
2851 -84 94 0
2851 -84 97 0
2851 -85 94 0
2851 -86 93 0
2851 -86 98 0
2851 -87 93 0
2851 -87 96 0
2851 -88 93 0
2851 -89 92 0
2851 -89 97 0
2851 -90 92 0
2851 -90 96 0
2851 -91 92 0
2851 -92 -93 0
2851 -92 -94 0
2851 -92 -95 0
2851 -92 -98 0
2851 -92 -101 0
2851 -93 -94 0
2851 -93 -95 0
2851 -93 -97 0
2851 -93 -100 0
2851 -94 -95 0
2851 -94 -96 0
2851 -94 -99 0
150 -1 0
150 -2 0
150 -8 0
50 -13 0
50 -17 0
75 -18 0
150 -23 0
150 -24 0
25 -25 0
150 -30 0
25 -31 0
75 -32 0
75 -33 0
75 -34 0
75 -35 0
150 -36 0
50 -44 0
50 -47 0
50 -50 0
150 -83 0
150 -84 0
25 -85 0
150 -86 0
150 -87 0
25 -88 0
150 -89 0
150 -90 0
25 -91 0
50 -92 0
50 -93 0
50 -94 0
